param k := 10;
param n := 50;
param s := ;
set E :=
(2-1,8-1)
(2-1,21-1)
(2-1,32-1)
(4-1,5-1)
(7-1,29-1)
(11-1,3-1)
(14-1,31-1)
(17-1,6-1)
(17-1,42-1)
(18-1,19-1)
(18-1,28-1)
(18-1,43-1)
(19-1,2-1)
(20-1,7-1)
(20-1,14-1)
(20-1,16-1)
(20-1,27-1)
(20-1,38-1)
(20-1,40-1)
(20-1,48-1)
(21-1,12-1)
(21-1,17-1)
(21-1,18-1)
(22-1,10-1)
(22-1,20-1)
(22-1,21-1)
(22-1,40-1)
(22-1,43-1)
(25-1,34-1)
(27-1,34-1)
(28-1,5-1)
(28-1,24-1)
(29-1,9-1)
(29-1,33-1)
(30-1,5-1)
(30-1,15-1)
(30-1,16-1)
(33-1,35-1)
(34-1,20-1)
(34-1,30-1)
(36-1,2-1)
(36-1,4-1)
(36-1,11-1)
(36-1,39-1)
(36-1,49-1)
(36-1,50-1)
(40-1,15-1)
(40-1,23-1)
(41-1,1-1)
(41-1,22-1)
(41-1,25-1)
(41-1,36-1)
(41-1,44-1)
(41-1,47-1)
(42-1,6-1)
(42-1,46-1)
(44-1,24-1)
(44-1,39-1)
(45-1,26-1)
(45-1,28-1)
(47-1,37-1)
(47-1,45-1)
(50-1,13-1)
;
param k := 10;
param n := 50;
param s := ;
set E :=
(2-1,8-1)
(2-1,21-1)
(2-1,32-1)
(4-1,5-1)
(7-1,29-1)
(11-1,3-1)
(14-1,31-1)
(17-1,6-1)
(17-1,42-1)
(18-1,19-1)
(18-1,28-1)
(18-1,43-1)
(19-1,2-1)
(20-1,7-1)
(20-1,14-1)
(20-1,16-1)
(20-1,27-1)
(20-1,38-1)
(20-1,40-1)
(20-1,48-1)
(21-1,12-1)
(21-1,17-1)
(21-1,18-1)
(22-1,10-1)
(22-1,20-1)
(22-1,21-1)
(22-1,40-1)
(22-1,43-1)
(25-1,34-1)
(27-1,34-1)
(28-1,5-1)
(28-1,24-1)
(29-1,9-1)
(29-1,33-1)
(30-1,5-1)
(30-1,15-1)
(30-1,16-1)
(33-1,35-1)
(34-1,20-1)
(34-1,30-1)
(36-1,2-1)
(36-1,4-1)
(36-1,11-1)
(36-1,39-1)
(36-1,49-1)
(36-1,50-1)
(40-1,15-1)
(40-1,23-1)
(41-1,1-1)
(41-1,22-1)
(41-1,25-1)
(41-1,36-1)
(41-1,44-1)
(41-1,47-1)
(42-1,6-1)
(42-1,46-1)
(44-1,24-1)
(44-1,39-1)
(45-1,26-1)
(45-1,28-1)
(47-1,37-1)
(47-1,45-1)
(50-1,13-1)
;
param k := 10;
param n := 50;
param s := ;
set E :=
(1,7)
(1,20)
(1,31)
(3,4)
(6,28)
(10,2)
(13,30)
(16,5)
(16,41)
(17,18)
(17,27)
(17,42)
(18,1)
(19,6)
(19,13)
(19,15)
(19,26)
(19,37)
(19,39)
(19,47)
(20,11)
(20,16)
(20,17)
(21,9)
(21,19)
(21,20)
(21,39)
(21,42)
(24,33)
(26,33)
(27,4)
(27,23)
(28,8)
(28,32)
(29,4)
(29,14)
(29,15)
(32,34)
(33,19)
(33,29)
(35,1)
(35,3)
(35,10)
(35,38)
(35,48)
(35,49)
(39,14)
(39,22)
(40,0)
(40,21)
(40,24)
(40,35)
(40,43)
(40,46)
(41,5)
(41,45)
(43,23)
(43,38)
(44,25)
(44,27)
(46,36)
(46,44)
(49,12)
;
param k := 10;
param n := 50;
param s := ;
set E :=
(1,7)
(1,20)
(1,31)
(3,4)
(6,28)
(2,10)
(13,30)
(5,16)
(16,41)
(17,18)
(17,27)
(17,42)
(1,18)
(6,19)
(13,19)
(15,19)
(19,26)
(19,37)
(19,39)
(19,47)
(11,20)
(16,20)
(17,20)
(9,21)
(19,21)
(20,21)
(21,39)
(21,42)
(24,33)
(26,33)
(4,27)
(23,27)
(8,28)
(28,32)
(4,29)
(14,29)
(15,29)
(32,34)
(19,33)
(29,33)
(1,35)
(3,35)
(10,35)
(35,38)
(35,48)
(35,49)
(14,39)
(22,39)
(0,40)
(21,40)
(24,40)
(35,40)
(40,43)
(40,46)
(5,41)
(41,45)
(23,43)
(38,43)
(25,44)
(27,44)
(36,46)
(44,46)
(12,49)
;
param k := 10;
param n := 50;
param s := ;
set E :=
(1,7)
(1,20)
(1,31)
(3,4)
(6,28)
(2,10)
(13,30)
(5,16)
(16,41)
(17,18)
(17,27)
(17,42)
(1,18)
(6,19)
(13,19)
(15,19)
(19,26)
(19,37)
(19,39)
(19,47)
(11,20)
(16,20)
(17,20)
(9,21)
(19,21)
(20,21)
(21,39)
(21,42)
(24,33)
(26,33)
(4,27)
(23,27)
(8,28)
(28,32)
(4,29)
(14,29)
(15,29)
(32,34)
(19,33)
(29,33)
(1,35)
(3,35)
(10,35)
(35,38)
(35,48)
(35,49)
(14,39)
(22,39)
(0,40)
(21,40)
(24,40)
(35,40)
(40,43)
(40,46)
(5,41)
(41,45)
(23,43)
(38,43)
(25,44)
(27,44)
(36,46)
(44,46)
(12,49)
;
param k := 10;
param n := 50;
param s := ;
set E :=
(1,7)
(1,20)
(1,31)
(3,4)
(6,28)
(2,10)
(13,30)
(5,16)
(16,41)
(17,18)
(17,27)
(17,42)
(1,18)
(6,19)
(13,19)
(15,19)
(19,26)
(19,37)
(19,39)
(19,47)
(11,20)
(16,20)
(17,20)
(9,21)
(19,21)
(20,21)
(21,39)
(21,42)
(24,33)
(26,33)
(4,27)
(23,27)
(8,28)
(28,32)
(4,29)
(14,29)
(15,29)
(32,34)
(19,33)
(29,33)
(1,35)
(3,35)
(10,35)
(35,38)
(35,48)
(35,49)
(14,39)
(22,39)
(0,40)
(21,40)
(24,40)
(35,40)
(40,43)
(40,46)
(5,41)
(41,45)
(23,43)
(38,43)
(25,44)
(27,44)
(36,46)
(44,46)
(12,49)
;
